44
2 25 55 
3 106 81 12 
3 120 26 112 
3 35 53 57 
3 27 29 51 
3 104 99 2 
2 82 109 
3 96 95 6 
3 8 43 54 
2 76 7 
3 97 60 33 
3 32 100 80 
2 79 98 
3 74 30 46 
3 14 62 87 
3 20 86 39 
3 75 92 68 
3 102 85 9 
3 65 17 1 
3 5 38 28 
3 36 69 78 
3 66 34 47 
2 94 117 
2 31 88 
3 84 91 50 
3 111 108 105 
3 44 90 16 
3 42 119 63 
3 114 89 24 
2 4 115 
2 49 61 
3 15 71 41 
3 37 93 110 
3 52 113 77 
3 48 116 118 
2 73 103 
2 18 58 
3 64 45 72 
3 22 3 83 
2 10 101 
3 19 59 21 
3 56 13 11 
2 67 40 
3 107 23 70 
